WARNING: for repeatability, setting FPU to use double precision
============================[ Problem Statistics ]=============================
|                                                                             |
|  Number of variables:           100                                         |
|  Number of clauses:             449                                         |
|  Parse time:                   0.00 s                                       |
|  Eliminated clauses:           0.00 Mb                                      |
|  Simplification time:          0.00 s                                       |
|                                                                             |
============================[ Search Statistics ]==============================
| Conflicts |          ORIGINAL         |          LEARNT          | Progress |
|           |    Vars  Clauses Literals |    Limit  Clauses Lit/Cl |          |
===============================================================================
|       100 |      99      446     1344 |      163      100      6 |  0.020 % |
===============================================================================
restarts              : 2
conflicts             : 135            (57203 /sec)
decisions             : 188            (0.00 % random) (79661 /sec)
propagations          : 3085           (1307203 /sec)
conflict literals     : 908            (16.16 % deleted)
Memory used           : 13.00 MB
CPU time              : 0.00236 s

SATISFIABLE
